698295
114,148,157,76,221,127,140,23,65,215,99,52,91,17,55,53,174,104,201,98,189,218,105,40,120,179,81,229,44,211,103,37,102,186,11,145,227,87,108,185,170,149,89,169,141,3,20,216,152,128,32,223,202,5,67,8,165,95,90,88,115,183,100,160,106,195,178,191,36,33,204,74,214,77,54,150,27,49,107,93,34,86,61,101,129,80,39,168,26,111,154,132,228,35,182,19,21,25,143,144,210,155,4,43,222,175,16,46,224,110,47,12,219,63,29,14,137,2,207,184,188,15,59,136,116,209,6,62,71,0,161,134,82,156,73,42,206,38,66,48,117,70,139,31,162,146,126,177,30,198,158,22,68,225,176,190,151,121,50,97,41,159,112,72,208,217,205,135,172,130,147,60,181,79,131,51,58,220,94,83,78,166,84,122,24,123,187,180,194,192,118,85,69,125,113,9,197,199,28,173,163,153,64,200,109,13,164,119,7,96,193,133,18,226,124,45,213,196,142,10,75,56,138,57,212,92,167,171,203,1
